Grasp exp. instance_n_20_m_10_id_5.lp tipoLifted 0 szPool 5 nIteration 20 alpha 0.4 
Academic license - for non-commercial use only
Read LP format model from file ../input/instancesGenerated/instance_n_20_m_10_id_5.lp
Reading time = 0.00 seconds
: 10 rows, 20 columns, 106 nonzeros
Optimize a model with 10 rows, 20 columns and 106 nonzeros
Variable types: 0 continuous, 20 integer (20 binary)
Coefficient statistics:
  Matrix range     [1e+00, 1e+01]
  Objective range  [1e+00, 1e+01]
  Bounds range     [1e+00, 1e+00]
  RHS range        [2e+01, 4e+01]
Found heuristic solution: objective 45.0000000

Explored 0 nodes (0 simplex iterations) in 0.00 seconds
Thread count was 1 (of 8 available processors)

Solution count 1: 45 
No other solutions better than 0

Solution limit reached
Best objective 4.500000000000e+01, best bound -, gap -
C_1:	 1.00 x_2  = 0.958175 + 6.00 x_4  = 1.000000 + 6.00 x_5  = 0.894583 + 5.00 x_7  = 0.000000 + 6.00 x_11  = 0.537029 + 5.00 x_15  = 0.448893 + 10.00 x_17  = 0.000000 + 7.00 x_18  = 1.000000 + 5.00 x_20  = 0.041537 <= 25.00
C_2:	 8.00 x_1  = 0.000000 + 6.00 x_5  = 0.894583 + 9.00 x_8  = 0.000000 + 3.00 x_10  = 0.655087 + 2.00 x_11  = 0.537029 + 2.00 x_12  = 0.000000 + 1.00 x_13  = 1.000000 + 5.00 x_14  = 0.000000 + 1.00 x_15  = 0.448893 + 2.00 x_18  = 1.000000 + 8.00 x_20  = 0.041537 <= 23.00
C_3:	 1.00 x_2  = 0.958175 + 2.00 x_3  = 1.000000 + 2.00 x_4  = 1.000000 + 6.00 x_5  = 0.894583 + 5.00 x_8  = 0.000000 + 6.00 x_10  = 0.655087 + 5.00 x_12  = 0.000000 + 9.00 x_14  = 0.000000 + 9.00 x_15  = 0.448893 + 5.00 x_18  = 1.000000 + 4.00 x_19  = 0.925942 <= 27.00
C_4:	 6.00 x_1  = 0.000000 + 7.00 x_3  = 1.000000 + 7.00 x_4  = 1.000000 + 5.00 x_8  = 0.000000 + 4.00 x_11  = 0.537029 + 5.00 x_12  = 0.000000 + 6.00 x_14  = 0.000000 + 4.00 x_16  = 0.220305 + 10.00 x_19  = 0.925942 + 10.00 x_20  = 0.041537 <= 32.00
C_5:	 5.00 x_2  = 0.958175 + 3.00 x_3  = 1.000000 + 9.00 x_4  = 1.000000 + 6.00 x_5  = 0.894583 + 5.00 x_6  = 0.000000 + 2.00 x_8  = 0.000000 + 3.00 x_9  = 1.000000 + 10.00 x_10  = 0.655087 + 6.00 x_14  = 0.000000 + 9.00 x_17  = 0.000000 + 7.00 x_20  = 0.041537 <= 32.00
C_6:	 3.00 x_1  = 0.000000 + 10.00 x_2  = 0.958175 + 8.00 x_7  = 0.000000 + 2.00 x_9  = 1.000000 + 7.00 x_11  = 0.537029 + 4.00 x_16  = 0.220305 + 10.00 x_17  = 0.000000 + 9.00 x_18  = 1.000000 + 3.00 x_19  = 0.925942 <= 28.00
C_7:	 1.00 x_1  = 0.000000 + 8.00 x_2  = 0.958175 + 9.00 x_5  = 0.894583 + 10.00 x_6  = 0.000000 + 5.00 x_7  = 0.000000 + 8.00 x_9  = 1.000000 + 4.00 x_10  = 0.655087 + 3.00 x_13  = 1.000000 + 8.00 x_14  = 0.000000 + 9.00 x_16  = 0.220305 + 5.00 x_17  = 0.000000 + 5.00 x_18  = 1.000000 + 6.00 x_19  = 0.925942 + 3.00 x_20  = 0.041537 <= 42.00
C_8:	 8.00 x_1  = 0.000000 + 8.00 x_3  = 1.000000 + 4.00 x_6  = 0.000000 + 7.00 x_7  = 0.000000 + 2.00 x_9  = 1.000000 + 5.00 x_10  = 0.655087 + 10.00 x_11  = 0.537029 + 2.00 x_12  = 0.000000 + 10.00 x_13  = 1.000000 + 6.00 x_15  = 0.448893 + 3.00 x_16  = 0.220305 <= 32.00
C_9:	 1.00 x_2  = 0.958175 + 1.00 x_4  = 1.000000 + 5.00 x_5  = 0.894583 + 7.00 x_8  = 0.000000 + 4.00 x_10  = 0.655087 + 5.00 x_12  = 0.000000 + 2.00 x_13  = 1.000000 + 2.00 x_14  = 0.000000 + 2.00 x_15  = 0.448893 + 7.00 x_16  = 0.220305 + 6.00 x_18  = 1.000000 + 10.00 x_19  = 0.925942 + 6.00 x_20  = 0.041537 <= 29.00
C_10:	 4.00 x_1  = 0.000000 + 9.00 x_3  = 1.000000 + 5.00 x_8  = 0.000000 + 8.00 x_11  = 0.537029 + 1.00 x_13  = 1.000000 + 6.00 x_17  = 0.000000 + 4.00 x_19  = 0.925942 <= 18.00
Solution initial: 71.395330 
Number Constraints Used in Cover:10
GRASP Method!
Number cuts repeat: 0
value: 71.395330
Number Constraints Used in Cover:14
GRASP Method!
Number cuts repeat: 0
value: 71.395330
Number Constraints Used in Cover:20
GRASP Method!
Number cuts repeat: 0
value: 71.395330
Number Constraints Used in Cover:28
GRASP Method!
Number cuts repeat: 0
value: 71.395330
Number Constraints Used in Cover:35
GRASP Method!
Number cuts repeat: 0
value: 71.395330
Number Constraints Used in Cover:47
GRASP Method!
Number cuts repeat: 0
value: 71.395330
Number Constraints Used in Cover:58
GRASP Method!
Number cuts repeat: 0
value: 70.742836
Number Constraints Used in Cover:69
GRASP Method!
Number cuts repeat: 0
value: 70.742836
Number Constraints Used in Cover:69
GRASP Method!
Number cuts repeat: 0
value: 70.742836
Number Constraints Used in Cover:77
GRASP Method!
Number cuts repeat: 0
value: 70.573823
Number Constraints Used in Cover:79
GRASP Method!
Number cuts repeat: 0
value: 70.573823
Number Constraints Used in Cover:92
GRASP Method!
Number cuts repeat: 0
value: 70.573823
Number Constraints Used in Cover:97
GRASP Method!
Number cuts repeat: 0
value: 70.218597
Number Constraints Used in Cover:103
GRASP Method!
Number cuts repeat: 0
value: 70.218597
Number Constraints Used in Cover:107
GRASP Method!
Number cuts repeat: 0
value: 70.218597
Number Constraints Used in Cover:118
GRASP Method!
Number cuts repeat: 0
value: 70.218597
Number Constraints Used in Cover:127
GRASP Method!
Number cuts repeat: 0
value: 70.218597
Number Constraints Used in Cover:136
GRASP Method!
Number cuts repeat: 0
value: 70.218597
Number Constraints Used in Cover:147
GRASP Method!
Number cuts repeat: 0
value: 70.218597
Number Constraints Used in Cover:157
GRASP Method!
Number cuts repeat: 0
value: 70.218597
Number Constraints Used in Cover:158
GRASP Method!
Number cuts repeat: 0
value: 70.218597
Number Constraints Used in Cover:167
GRASP Method!
Number cuts repeat: 0
value: 70.218597
Number Constraints Used in Cover:172
GRASP Method!
Number cuts repeat: 0
value: 70.218597
Number Constraints Used in Cover:173
GRASP Method!
Number cuts repeat: 0
value: 70.218597
Number Constraints Used in Cover:177
GRASP Method!
Number cuts repeat: 0
value: 70.218597
Number Constraints Used in Cover:182
GRASP Method!
Number cuts repeat: 0
value: 70.218597
Number Constraints Used in Cover:186
GRASP Method!
Number cuts repeat: 0
value: 70.218597
Number Constraints Used in Cover:187
GRASP Method!
Number cuts repeat: 0
value: 70.218597
Number Constraints Used in Cover:190
GRASP Method!
Number cuts repeat: 0
value: 70.218597
Number Constraints Used in Cover:198
GRASP Method!
Number cuts repeat: 0
value: 70.218597
Number Constraints Used in Cover:205
GRASP Method!
Number cuts repeat: 0
value: 70.218597
Number Constraints Used in Cover:207
GRASP Method!
Number cuts repeat: 0
value: 70.218597
Number Constraints Used in Cover:207
GRASP Method!
Number cuts repeat: 0
value: 70.218597
Number Constraints Used in Cover:207
GRASP Method!
Number cuts repeat: 0
value: 70.218597
Number Constraints Used in Cover:207
GRASP Method!
Number cuts repeat: 0
value: 70.218597
Number Constraints Used in Cover:208
GRASP Method!
Number cuts repeat: 0
value: 70.218597
Number Constraints Used in Cover:215
GRASP Method!
Number cuts repeat: 0
value: 70.218597
Number Constraints Used in Cover:218
GRASP Method!
Number cuts repeat: 0
value: 70.218597
Number Constraints Used in Cover:219
GRASP Method!
Number cuts repeat: 0
value: 70.218597
Number Constraints Used in Cover:221
GRASP Method!
Number cuts repeat: 0
value: 70.218597
Number Constraints Used in Cover:222
GRASP Method!
Number cuts repeat: 0
value: 70.218597
Number Constraints Used in Cover:222
GRASP Method!
Number cuts repeat: 0
value: 70.218597
Number Constraints Used in Cover:223
GRASP Method!
Number cuts repeat: 0
value: 70.218597
Number Constraints Used in Cover:227
GRASP Method!
Number cuts repeat: 0
value: 70.218597
Number Constraints Used in Cover:228
GRASP Method!
Number cuts repeat: 0
value: 70.218597
Number Constraints Used in Cover:229
GRASP Method!
Number cuts repeat: 0
value: 70.218597
Number Constraints Used in Cover:229
GRASP Method!
Number cuts repeat: 0
value: 70.218597
Number Constraints Used in Cover:231
GRASP Method!
Number cuts repeat: 0
value: 70.218597
Number Constraints Used in Cover:231
GRASP Method!
Number cuts repeat: 0
value: 70.218597
Number Constraints Used in Cover:231
GRASP Method!
Number cuts repeat: 0
value: 70.218597
Number Constraints Used in Cover:233
GRASP Method!
Number cuts repeat: 0
value: 70.218597
Number Constraints Used in Cover:236
GRASP Method!
Number cuts repeat: 0
value: 70.218597
Number Constraints Used in Cover:238
GRASP Method!
Number cuts repeat: 0
value: 70.218597
Number Constraints Used in Cover:246
GRASP Method!
Number cuts repeat: 0
value: 70.218597
Number Constraints Used in Cover:246
GRASP Method!
Number cuts repeat: 0
value: 70.218597
Number Constraints Used in Cover:247
GRASP Method!
Number cuts repeat: 0
value: 70.218597
Number Constraints Used in Cover:249
GRASP Method!
Number cuts repeat: 0
value: 70.218597
Number Constraints Used in Cover:249
GRASP Method!
Number cuts repeat: 0
value: 70.218597
Number Constraints Used in Cover:251
GRASP Method!
Number cuts repeat: 0
value: 70.218597
Number Constraints Used in Cover:254
GRASP Method!
Number cuts repeat: 0
value: 70.218597
Number Constraints Used in Cover:254
GRASP Method!
Number cuts repeat: 0
value: 70.218597
Number Constraints Used in Cover:257
GRASP Method!
Number cuts repeat: 0
value: 70.218597
Number Constraints Used in Cover:263
GRASP Method!
Number cuts repeat: 0
value: 70.218597
Number Constraints Used in Cover:266
GRASP Method!
Number cuts repeat: 0
value: 70.218597
Number Constraints Used in Cover:269
GRASP Method!
Number cuts repeat: 0
value: 70.218597
Number Constraints Used in Cover:272
GRASP Method!
Number cuts repeat: 0
value: 70.218597
Number Constraints Used in Cover:272
GRASP Method!
Number cuts repeat: 0
value: 70.218597
Number Constraints Used in Cover:280
GRASP Method!
Number cuts repeat: 0
value: 70.218597
Number Constraints Used in Cover:282
GRASP Method!
Number cuts repeat: 0
value: 70.218597
Number Constraints Used in Cover:284
GRASP Method!
Number cuts repeat: 0
value: 70.218597
Number Constraints Used in Cover:287
GRASP Method!
Number cuts repeat: 0
value: 70.218597
Number Constraints Used in Cover:288
GRASP Method!
Number cuts repeat: 0
value: 70.218597
Number Constraints Used in Cover:291
GRASP Method!
Number cuts repeat: 0
value: 70.218597
Number Constraints Used in Cover:292
GRASP Method!
Number cuts repeat: 0
value: 70.218597
Number Constraints Used in Cover:295
GRASP Method!
Number cuts repeat: 0
value: 70.218597
Number Constraints Used in Cover:295
GRASP Method!
Number cuts repeat: 0
value: 70.218597
Number Constraints Used in Cover:298
GRASP Method!
Number cuts repeat: 0
value: 70.218597
Number Constraints Used in Cover:300
GRASP Method!
Number cuts repeat: 0
value: 70.218597
Number Constraints Used in Cover:303
GRASP Method!
Number cuts repeat: 0
value: 70.218597
Number Constraints Used in Cover:303
GRASP Method!
Number cuts repeat: 0
value: 70.218597
Number Constraints Used in Cover:305
GRASP Method!
Number cuts repeat: 0
value: 70.218597
Number Constraints Used in Cover:307
GRASP Method!
Number cuts repeat: 0
value: 70.218597
Number Constraints Used in Cover:312
GRASP Method!
Number cuts repeat: 0
value: 70.218597
Number Constraints Used in Cover:318
GRASP Method!
Number cuts repeat: 0
value: 70.218597
Number Constraints Used in Cover:321
GRASP Method!
Number cuts repeat: 0
value: 70.218597
Number Constraints Used in Cover:324
GRASP Method!
Number cuts repeat: 0
value: 70.218597
Number Constraints Used in Cover:326
GRASP Method!
Number cuts repeat: 0
value: 70.218597
Number Constraints Used in Cover:329
GRASP Method!
Number cuts repeat: 0
value: 70.218597
Number Constraints Used in Cover:329
GRASP Method!
Number cuts repeat: 0
value: 70.218597
Number Constraints Used in Cover:331
GRASP Method!
Number cuts repeat: 0
value: 70.218597
Number Constraints Used in Cover:332
GRASP Method!
Number cuts repeat: 0
value: 70.218597
Number Constraints Used in Cover:332
GRASP Method!
Number cuts repeat: 0
value: 70.218597
Number Constraints Used in Cover:332
GRASP Method!
Number cuts repeat: 0
value: 70.218597
Number Constraints Used in Cover:333
GRASP Method!
Number cuts repeat: 0
value: 70.218597
Number Constraints Used in Cover:333
GRASP Method!
Number cuts repeat: 0
value: 70.218597
Number Constraints Used in Cover:333
GRASP Method!
Number cuts repeat: 0
value: 70.218597
Number Constraints Used in Cover:335
GRASP Method!
Number cuts repeat: 0
value: 70.218597
Number Constraints Used in Cover:337
GRASP Method!
Number cuts repeat: 0
value: 70.218597
Number Constraints Used in Cover:338
GRASP Method!
Number cuts repeat: 0
value: 70.218597
Number Constraints Used in Cover:338
GRASP Method!
Number cuts repeat: 0
value: 70.218597
Number Constraints Used in Cover:339
GRASP Method!
Number cuts repeat: 0
value: 70.218597
Number Constraints Used in Cover:339
GRASP Method!
Number cuts repeat: 0
value: 70.218597
Number Constraints Used in Cover:341
GRASP Method!
Number cuts repeat: 0
value: 70.218597
Number Constraints Used in Cover:341
GRASP Method!
Number cuts repeat: 0
value: 70.218597
Number Constraints Used in Cover:341
GRASP Method!
Number cuts repeat: 0
value: 70.218597
Number Constraints Used in Cover:343
GRASP Method!
Number cuts repeat: 0
value: 70.218597
Number Constraints Used in Cover:346
GRASP Method!
Number cuts repeat: 0
value: 70.218597
Number Constraints Used in Cover:346
GRASP Method!
Number cuts repeat: 0
value: 70.218597
Number Constraints Used in Cover:348
GRASP Method!
Number cuts repeat: 0
value: 70.218597
Number Constraints Used in Cover:348
GRASP Method!
Number cuts repeat: 0
value: 70.218597
Number Constraints Used in Cover:351
GRASP Method!
Number cuts repeat: 0
value: 70.218597
Number Constraints Used in Cover:351
GRASP Method!
Number cuts repeat: 0
value: 70.218597
Number Constraints Used in Cover:351
GRASP Method!
Number cuts repeat: 0
value: 70.218597
Number Constraints Used in Cover:351
GRASP Method!
Number cuts repeat: 0
value: 70.218597
Number Constraints Used in Cover:353
GRASP Method!
Number cuts repeat: 0
value: 70.218597
Number Constraints Used in Cover:354
GRASP Method!
Number cuts repeat: 0
value: 70.218597
Number Constraints Used in Cover:354
GRASP Method!
Number cuts repeat: 0
value: 70.218597
Number Constraints Used in Cover:355
GRASP Method!
Number cuts repeat: 0
value: 70.218597
Number Constraints Used in Cover:356
GRASP Method!
Number cuts repeat: 0
value: 70.218597
Number Constraints Used in Cover:357
GRASP Method!
Number cuts repeat: 0
value: 70.218597
Number Constraints Used in Cover:360
GRASP Method!
Number cuts repeat: 0
value: 70.218597
Number Constraints Used in Cover:360
GRASP Method!
Number cuts repeat: 0
value: 70.218597
Number Constraints Used in Cover:361
GRASP Method!
Number cuts repeat: 0
value: 70.218597
Number Constraints Used in Cover:361
GRASP Method!
Number cuts repeat: 0
value: 70.218597
Number Constraints Used in Cover:361
GRASP Method!
Number cuts repeat: 0
value: 70.218597
Number Constraints Used in Cover:361
GRASP Method!
Number cuts repeat: 0
value: 70.218597
Number Constraints Used in Cover:361
GRASP Method!
Number cuts repeat: 0
value: 70.218597
Number Constraints Used in Cover:361
GRASP Method!
Number cuts repeat: 0
value: 70.218597
Number Constraints Used in Cover:361
GRASP Method!
Number cuts repeat: 0
value: 70.218597
Number Constraints Used in Cover:361
GRASP Method!
Number cuts repeat: 0
value: 70.218597
Number Constraints Used in Cover:361
GRASP Method!
Number cuts repeat: 0
value: 70.218597
Number Constraints Used in Cover:361
GRASP Method!
Number cuts repeat: 0
value: 70.218597
Number Constraints Used in Cover:362
GRASP Method!
Number cuts repeat: 0
value: 70.218597
Number Constraints Used in Cover:365
GRASP Method!
Number cuts repeat: 0
value: 70.218597
Number Constraints Used in Cover:365
GRASP Method!
Number cuts repeat: 0
value: 70.218597
Number Constraints Used in Cover:367
GRASP Method!
Number cuts repeat: 0
value: 70.218597
Number Constraints Used in Cover:367
GRASP Method!
Number cuts repeat: 0
value: 70.218597
Number Constraints Used in Cover:367
GRASP Method!
Number cuts repeat: 0
value: 70.218597
Number Constraints Used in Cover:367
GRASP Method!
Number cuts repeat: 0
value: 70.218597
Number Constraints Used in Cover:367
GRASP Method!
Number cuts repeat: 0
value: 70.218597
Number Constraints Used in Cover:367
GRASP Method!
Number cuts repeat: 0
value: 70.218597
Number Constraints Used in Cover:367
GRASP Method!
Number cuts repeat: 0
value: 70.218597
Number Constraints Used in Cover:367
GRASP Method!
Number cuts repeat: 0
value: 70.218597
Number Constraints Used in Cover:367
GRASP Method!
Number cuts repeat: 0
value: 70.218597
Number Constraints Used in Cover:367
GRASP Method!
Number cuts repeat: 0
value: 70.218597
Number Constraints Used in Cover:367
GRASP Method!
Number cuts repeat: 0
value: 70.218597
Number Constraints Used in Cover:367
GRASP Method!
Number cuts repeat: 0
value: 70.218597
Number Constraints Used in Cover:367
GRASP Method!
Number cuts repeat: 0
value: 70.218597
Number Constraints Used in Cover:368
GRASP Method!
Number cuts repeat: 0
value: 70.218597
Number Constraints Used in Cover:369
GRASP Method!
Number cuts repeat: 0
value: 70.218597
Number Constraints Used in Cover:370
GRASP Method!
Number cuts repeat: 0
value: 70.218597
Number Constraints Used in Cover:372
GRASP Method!
Number cuts repeat: 0
value: 70.218597
Number Constraints Used in Cover:373
GRASP Method!
Number cuts repeat: 0
value: 70.218597
Number Constraints Used in Cover:373
GRASP Method!
Number cuts repeat: 0
value: 70.218597
Number Constraints Used in Cover:373
GRASP Method!
Number cuts repeat: 0
value: 70.218597
Number Constraints Used in Cover:373
GRASP Method!
Number cuts repeat: 0
value: 70.218597
Number Constraints Used in Cover:374
GRASP Method!
Number cuts repeat: 0
value: 70.218597
Number Constraints Used in Cover:374
GRASP Method!
Number cuts repeat: 0
value: 70.218597
Number Constraints Used in Cover:375
GRASP Method!
Number cuts repeat: 0
value: 70.218597
Number Constraints Used in Cover:375
GRASP Method!
Number cuts repeat: 0
value: 70.218597
Number Constraints Used in Cover:375
GRASP Method!
Number cuts repeat: 0
value: 70.218597
Number Constraints Used in Cover:376
GRASP Method!
Number cuts repeat: 0
value: 70.218597
Number Constraints Used in Cover:376
GRASP Method!
Number cuts repeat: 0
value: 70.218597
Number Constraints Used in Cover:377
GRASP Method!
Number cuts repeat: 0
value: 70.218597
Number Constraints Used in Cover:377
GRASP Method!
Number cuts repeat: 0
value: 70.218597
Number Constraints Used in Cover:377
GRASP Method!
Number cuts repeat: 0
value: 70.218597
Number Constraints Used in Cover:378
GRASP Method!
Number cuts repeat: 0
value: 70.218597
Number Constraints Used in Cover:378
GRASP Method!
Number cuts repeat: 0
value: 70.218597
Number Constraints Used in Cover:378
GRASP Method!
Number cuts repeat: 0
value: 70.218597
Number Constraints Used in Cover:378
GRASP Method!
Number cuts repeat: 0
value: 70.218597
Number Constraints Used in Cover:378
GRASP Method!
Number cuts repeat: 0
value: 70.218597
Number Constraints Used in Cover:379
GRASP Method!
Number cuts repeat: 0
value: 70.218597
Number Constraints Used in Cover:379
GRASP Method!
Number cuts repeat: 0
value: 70.218597
Number Constraints Used in Cover:380
GRASP Method!
Number cuts repeat: 0
value: 70.218597
Number Constraints Used in Cover:380
GRASP Method!
Number cuts repeat: 0
value: 70.218597
Number Constraints Used in Cover:380
GRASP Method!
Number cuts repeat: 0
value: 70.218597
Number Constraints Used in Cover:383
GRASP Method!
Number cuts repeat: 0
value: 70.218597
Number Constraints Used in Cover:383
GRASP Method!
Number cuts repeat: 0
value: 70.218597
Number Constraints Used in Cover:384
GRASP Method!
Number cuts repeat: 0
value: 70.218597
Number Constraints Used in Cover:384
GRASP Method!
Number cuts repeat: 0
value: 70.218597
Number Constraints Used in Cover:384
GRASP Method!
Number cuts repeat: 0
value: 70.218597
Number Constraints Used in Cover:385
GRASP Method!
Number cuts repeat: 0
value: 70.218597
Number Constraints Used in Cover:385
GRASP Method!
Number cuts repeat: 0
value: 70.218597
Number Constraints Used in Cover:385
GRASP Method!
Number cuts repeat: 0
value: 70.218597
Number Constraints Used in Cover:385
GRASP Method!
Number cuts repeat: 0
value: 70.218597
Number Constraints Used in Cover:385
GRASP Method!
Number cuts repeat: 0
value: 70.218597
Number Constraints Used in Cover:385
GRASP Method!
Number cuts repeat: 0
value: 70.218597
Number Constraints Used in Cover:385
GRASP Method!
Number cuts repeat: 0
value: 70.218597
Number Constraints Used in Cover:385
GRASP Method!
Number cuts repeat: 0
value: 70.218597
Number Constraints Used in Cover:385
GRASP Method!
Number cuts repeat: 0
value: 70.218597
Number Constraints Used in Cover:386
GRASP Method!
Number cuts repeat: 0
value: 70.218597
Number Constraints Used in Cover:387
GRASP Method!
Number cuts repeat: 0
value: 70.218597
Number Constraints Used in Cover:387
GRASP Method!
Number cuts repeat: 0
value: 70.218597
Number Constraints Used in Cover:387
GRASP Method!
Number cuts repeat: 0
value: 70.218597
Number Constraints Used in Cover:387
GRASP Method!
Number cuts repeat: 0
value: 70.218597
Number Constraints Used in Cover:387
GRASP Method!
Number cuts repeat: 0
value: 70.218597
Number Constraints Used in Cover:387
GRASP Method!
Number cuts repeat: 0
value: 70.218597
Number Constraints Used in Cover:387
GRASP Method!
Number cuts repeat: 0
value: 70.218597
Number Constraints Used in Cover:387
GRASP Method!
Number cuts repeat: 0
value: 70.218597
Number Constraints Used in Cover:387
GRASP Method!
Number cuts repeat: 0
value: 70.218597
Number Constraints Used in Cover:387
GRASP Method!
Number cuts repeat: 0
value: 70.218597
Number Constraints Used in Cover:387
GRASP Method!
Number cuts repeat: 0
value: 70.218597
Number Constraints Used in Cover:387
GRASP Method!
Number cuts repeat: 0
value: 70.218597
Number Constraints Used in Cover:387
GRASP Method!
Number cuts repeat: 0
value: 70.218597
Number Constraints Used in Cover:387
GRASP Method!
Number cuts repeat: 0
value: 70.218597
Number Constraints Used in Cover:387
GRASP Method!
Number cuts repeat: 0
value: 70.218597
Number Constraints Used in Cover:387
GRASP Method!
Number cuts repeat: 0
value: 70.218597
Number Constraints Used in Cover:387
GRASP Method!
Number cuts repeat: 0
value: 70.218597
Number Constraints Used in Cover:387
GRASP Method!
Number cuts repeat: 0
value: 70.218597
Number Constraints Used in Cover:387
GRASP Method!
Number cuts repeat: 0
value: 70.218597
Number Constraints Used in Cover:387
GRASP Method!
Number cuts repeat: 0
value: 70.218597
Number Constraints Used in Cover:387
GRASP Method!
Number cuts repeat: 0
value: 70.218597
Number Constraints Used in Cover:387
GRASP Method!
Number cuts repeat: 0
value: 70.218597
Number Constraints Used in Cover:387
GRASP Method!
Number cuts repeat: 0
value: 70.218597
Number Constraints Used in Cover:387
GRASP Method!
Number cuts repeat: 0
value: 70.218597
Number Constraints Used in Cover:387
GRASP Method!
Number cuts repeat: 0
value: 70.218597
Number Constraints Used in Cover:387
GRASP Method!
Number cuts repeat: 0
value: 70.218597
Number Constraints Used in Cover:387
GRASP Method!
Number cuts repeat: 0
value: 70.218597
Number Constraints Used in Cover:389
GRASP Method!
Number cuts repeat: 0
value: 70.218597
Number Constraints Used in Cover:390
GRASP Method!
Number cuts repeat: 0
value: 70.218597
Number Constraints Used in Cover:390
GRASP Method!
Number cuts repeat: 0
value: 70.218597
Number Constraints Used in Cover:390
GRASP Method!
Number cuts repeat: 0
value: 70.218597
Number Constraints Used in Cover:390
GRASP Method!
Number cuts repeat: 0
value: 70.218597
Number Constraints Used in Cover:390
GRASP Method!
Number cuts repeat: 0
value: 70.218597
Number Constraints Used in Cover:390
GRASP Method!
Number cuts repeat: 0
value: 70.218597
Number Constraints Used in Cover:391
GRASP Method!
Number cuts repeat: 0
value: 70.218597
Number Constraints Used in Cover:391
GRASP Method!
Number cuts repeat: 0
value: 70.218597
Number Constraints Used in Cover:392
GRASP Method!
Number cuts repeat: 0
value: 70.218597
Number Constraints Used in Cover:392
GRASP Method!
Number cuts repeat: 0
value: 70.218597
Number Constraints Used in Cover:392
GRASP Method!
Number cuts repeat: 0
value: 70.218597
Number Constraints Used in Cover:392
GRASP Method!
Number cuts repeat: 0
value: 70.218597
Number Constraints Used in Cover:392
GRASP Method!
Number cuts repeat: 0
value: 70.218597
Number Constraints Used in Cover:392
GRASP Method!
Number cuts repeat: 0
value: 70.218597
Number Constraints Used in Cover:392
GRASP Method!
Number cuts repeat: 0
value: 70.218597
Number Constraints Used in Cover:392
GRASP Method!
Number cuts repeat: 0
value: 70.218597
Number Constraints Used in Cover:392
GRASP Method!
Number cuts repeat: 0
value: 70.218597
Number Constraints Used in Cover:394
GRASP Method!
Number cuts repeat: 0
value: 70.218597
Number Constraints Used in Cover:395
GRASP Method!
Number cuts repeat: 0
value: 70.218597
Number Constraints Used in Cover:395
GRASP Method!
Number cuts repeat: 0
value: 70.218597
Number Constraints Used in Cover:395
GRASP Method!
Number cuts repeat: 0
value: 70.218597
Number Constraints Used in Cover:395
GRASP Method!
Number cuts repeat: 0
value: 70.218597
Number Constraints Used in Cover:395
GRASP Method!
Number cuts repeat: 0
value: 70.218597
Number Constraints Used in Cover:395
GRASP Method!
Number cuts repeat: 0
value: 70.218597
Number Constraints Used in Cover:395
GRASP Method!
Number cuts repeat: 0
value: 70.218597
Number Constraints Used in Cover:395
GRASP Method!
Number cuts repeat: 0
value: 70.218597
Number Constraints Used in Cover:395
GRASP Method!
Number cuts repeat: 0
value: 70.218597
Number Constraints Used in Cover:395
GRASP Method!
Number cuts repeat: 0
value: 70.218597
Number Constraints Used in Cover:395
GRASP Method!
Number cuts repeat: 0
value: 70.218597
Number Constraints Used in Cover:395
GRASP Method!
Number cuts repeat: 0
value: 70.218597
Number Constraints Used in Cover:395
GRASP Method!
Number cuts repeat: 0
value: 70.218597
Number Constraints Used in Cover:395
GRASP Method!
Number cuts repeat: 0
value: 70.218597
Number Constraints Used in Cover:395
GRASP Method!
Number cuts repeat: 0
value: 70.218597
Number Constraints Used in Cover:395
GRASP Method!
Number cuts repeat: 0
value: 70.218597
Number Constraints Used in Cover:395
GRASP Method!
Number cuts repeat: 0
value: 70.218597
Number Constraints Used in Cover:395
GRASP Method!
Number cuts repeat: 0
value: 70.218597
Number Constraints Used in Cover:396
GRASP Method!
Number cuts repeat: 0
value: 70.218597
Number Constraints Used in Cover:396
GRASP Method!
Number cuts repeat: 0
value: 70.218597
Number Constraints Used in Cover:396
GRASP Method!
Number cuts repeat: 0
value: 70.218597
Number Constraints Used in Cover:396
GRASP Method!
Number cuts repeat: 0
value: 70.218597
Number Constraints Used in Cover:396
GRASP Method!
Number cuts repeat: 0
value: 70.218597
Number Constraints Used in Cover:396
GRASP Method!
Number cuts repeat: 0
value: 70.218597
Number Constraints Used in Cover:396
GRASP Method!
Number cuts repeat: 0
value: 70.218597
Number Constraints Used in Cover:396
GRASP Method!
Number cuts repeat: 0
value: 70.218597
Number Constraints Used in Cover:396
GRASP Method!
Number cuts repeat: 0
value: 70.218597
Number Constraints Used in Cover:396
GRASP Method!
Number cuts repeat: 0
value: 70.218597
Number Constraints Used in Cover:396
GRASP Method!
Number cuts repeat: 0
value: 70.218597
Number Constraints Used in Cover:396
GRASP Method!
Number cuts repeat: 0
value: 70.218597
Number Constraints Used in Cover:396
GRASP Method!
Number cuts repeat: 0
value: 70.218597
Number Constraints Used in Cover:397
GRASP Method!
Number cuts repeat: 0
value: 70.218597
Number Constraints Used in Cover:397
GRASP Method!
Number cuts repeat: 0
value: 70.218597
Number Constraints Used in Cover:397
GRASP Method!
Number cuts repeat: 0
value: 70.218597
Number Constraints Used in Cover:397
GRASP Method!
Number cuts repeat: 0
value: 70.218597
Number Constraints Used in Cover:397
GRASP Method!
Number cuts repeat: 0
value: 70.218597
Number Constraints Used in Cover:397
GRASP Method!
Number cuts repeat: 0
value: 70.218597
Number Constraints Used in Cover:397
GRASP Method!
Number cuts repeat: 0
value: 70.218597
Number Constraints Used in Cover:397
GRASP Method!
Number cuts repeat: 0
value: 70.218597
Number Constraints Used in Cover:397
GRASP Method!
Number cuts repeat: 0
value: 70.218597
Number Constraints Used in Cover:397
GRASP Method!
Number cuts repeat: 0
value: 70.218597
Number Constraints Used in Cover:397
GRASP Method!
Number cuts repeat: 0
value: 70.218597
Number Constraints Used in Cover:397
GRASP Method!
Number cuts repeat: 0
value: 70.218597
Number Constraints Used in Cover:397
GRASP Method!
Number cuts repeat: 0
value: 70.218597
Number Constraints Used in Cover:397
GRASP Method!
Number cuts repeat: 0
value: 70.218597
Number Constraints Used in Cover:397
GRASP Method!
Number cuts repeat: 0
value: 70.218597
Number Constraints Used in Cover:397
GRASP Method!
Number cuts repeat: 0
value: 70.218597
Number Constraints Used in Cover:397
GRASP Method!
Number cuts repeat: 0
value: 70.218597
Number Constraints Used in Cover:397
GRASP Method!
Number cuts repeat: 0
value: 70.218597
Number Constraints Used in Cover:397
GRASP Method!
Number cuts repeat: 0
value: 70.218597
Number Constraints Used in Cover:397
GRASP Method!
Number cuts repeat: 0
value: 70.218597
Number Constraints Used in Cover:397
GRASP Method!
Number cuts repeat: 0
value: 70.218597
Number Constraints Used in Cover:397
GRASP Method!
Number cuts repeat: 0
value: 70.218597
Number Constraints Used in Cover:397
GRASP Method!
Number cuts repeat: 0
value: 70.218597
Number Constraints Used in Cover:397
GRASP Method!
Number cuts repeat: 0
value: 70.218597
Number Constraints Used in Cover:397
GRASP Method!
Number cuts repeat: 0
value: 70.218597
Number Constraints Used in Cover:397
GRASP Method!
Number cuts repeat: 0
value: 70.218597
Number Constraints Used in Cover:397
GRASP Method!
Number cuts repeat: 0
value: 70.218597
Number Constraints Used in Cover:397
GRASP Method!
Number cuts repeat: 0
value: 70.218597
Number Constraints Used in Cover:397
GRASP Method!
Number cuts repeat: 0
value: 70.218597
Number Constraints Used in Cover:397
GRASP Method!
Number cuts repeat: 0
value: 70.218597
Number Constraints Used in Cover:397
GRASP Method!
Number cuts repeat: 0
value: 70.218597
Number Constraints Used in Cover:397
GRASP Method!
Number cuts repeat: 0
value: 70.218597
Number Constraints Used in Cover:398
GRASP Method!
Number cuts repeat: 0
value: 70.218597
Number Constraints Used in Cover:399
GRASP Method!
Number cuts repeat: 0
value: 70.218597
Number Constraints Used in Cover:400
GRASP Method!
Number cuts repeat: 0
value: 70.218597
Number Constraints Used in Cover:400
GRASP Method!
Number cuts repeat: 0
value: 70.218597
Number Constraints Used in Cover:400
GRASP Method!
Number cuts repeat: 0
value: 70.218597
Number Constraints Used in Cover:401
GRASP Method!
Number cuts repeat: 0
value: 70.218597
Number Constraints Used in Cover:401
GRASP Method!
Number cuts repeat: 0
value: 70.218597
Number Constraints Used in Cover:401
GRASP Method!
Number cuts repeat: 0
value: 70.218597
Number Constraints Used in Cover:402
GRASP Method!
Number cuts repeat: 0
value: 70.218597
Number Constraints Used in Cover:402
GRASP Method!
Number cuts repeat: 0
value: 70.218597
Number Constraints Used in Cover:403
GRASP Method!
Number cuts repeat: 0
value: 70.218597
Number Constraints Used in Cover:403
GRASP Method!
Number cuts repeat: 0
value: 70.218597
Number Constraints Used in Cover:403
GRASP Method!
Number cuts repeat: 0
value: 70.218597
Number Constraints Used in Cover:403
GRASP Method!
Number cuts repeat: 0
value: 70.218597
Number Constraints Used in Cover:403
GRASP Method!
Number cuts repeat: 0
value: 70.218597
Number Constraints Used in Cover:403
GRASP Method!
Number cuts repeat: 0
value: 70.218597
Number Constraints Used in Cover:403
GRASP Method!
Number cuts repeat: 0
value: 70.218597
Number Constraints Used in Cover:403
GRASP Method!
Number cuts repeat: 0
value: 70.218597
Number Constraints Used in Cover:403
GRASP Method!
Number cuts repeat: 0
value: 70.218597
Number Constraints Used in Cover:403
GRASP Method!
Number cuts repeat: 0
value: 70.218597
Number Constraints Used in Cover:403
GRASP Method!
Number cuts repeat: 0
value: 70.218597
Number Constraints Used in Cover:403
GRASP Method!
Number cuts repeat: 0
value: 70.218597
Number Constraints Used in Cover:403
GRASP Method!
Number cuts repeat: 0
value: 70.218597
Number Constraints Used in Cover:403
GRASP Method!
Number cuts repeat: 0
value: 70.218597
Number Constraints Used in Cover:403
GRASP Method!
Number cuts repeat: 0
value: 70.218597
Number Constraints Used in Cover:403
GRASP Method!
Number cuts repeat: 0
value: 70.218597
Number Constraints Used in Cover:405
GRASP Method!
Number cuts repeat: 0
value: 70.218597
Number Constraints Used in Cover:405
GRASP Method!
Number cuts repeat: 0
value: 70.218597
Number Constraints Used in Cover:405
GRASP Method!
Number cuts repeat: 0
value: 70.218597
Number Constraints Used in Cover:405
GRASP Method!
Number cuts repeat: 0
value: 70.218597
Number Constraints Used in Cover:405
GRASP Method!
Number cuts repeat: 0
value: 70.218597
Number Constraints Used in Cover:406
GRASP Method!
Number cuts repeat: 0
value: 70.218597
Number Constraints Used in Cover:406
GRASP Method!
Number cuts repeat: 0
value: 70.218597
Number Constraints Used in Cover:406
GRASP Method!
Number cuts repeat: 0
value: 70.218597
Number Constraints Used in Cover:406
GRASP Method!
Number cuts repeat: 0
value: 70.218597
Number Constraints Used in Cover:406
GRASP Method!
Number cuts repeat: 0
value: 70.218597
Number Constraints Used in Cover:406
GRASP Method!
Number cuts repeat: 0
value: 70.218597
Number Constraints Used in Cover:406
GRASP Method!
Number cuts repeat: 0
value: 70.218597
Number Constraints Used in Cover:406
GRASP Method!
Number cuts repeat: 0
value: 70.218597
Number Constraints Used in Cover:406
GRASP Method!
Number cuts repeat: 0
value: 70.218597
Number Constraints Used in Cover:406
GRASP Method!
Number cuts repeat: 0
value: 70.218597
Number Constraints Used in Cover:407
GRASP Method!
Number cuts repeat: 0
value: 70.218597
Number Constraints Used in Cover:409
GRASP Method!
Number cuts repeat: 0
value: 70.218597
Number Constraints Used in Cover:409
GRASP Method!
Number cuts repeat: 0
value: 70.218597
Number Constraints Used in Cover:409
GRASP Method!
Number cuts repeat: 0
value: 70.218597
Number Constraints Used in Cover:409
GRASP Method!
Number cuts repeat: 0
value: 70.218597
Number Constraints Used in Cover:409
GRASP Method!
Number cuts repeat: 0
value: 70.218597
Number Constraints Used in Cover:410
GRASP Method!
Number cuts repeat: 0
value: 70.218597
Number Constraints Used in Cover:410
GRASP Method!
Number cuts repeat: 0
value: 70.218597
Number Constraints Used in Cover:410
GRASP Method!
Number cuts repeat: 0
value: 70.218597
Number Constraints Used in Cover:410
GRASP Method!
Number cuts repeat: 0
value: 70.218597
Number Constraints Used in Cover:412
GRASP Method!
Number cuts repeat: 0
value: 70.218597
Number Constraints Used in Cover:412
GRASP Method!
Number cuts repeat: 0
value: 70.218597
Number Constraints Used in Cover:412
GRASP Method!
Number cuts repeat: 0
value: 70.218597
Number Constraints Used in Cover:412
GRASP Method!
Number cuts repeat: 0
value: 70.218597
Number Constraints Used in Cover:412
GRASP Method!
Number cuts repeat: 0
value: 70.218597
Number Constraints Used in Cover:412
GRASP Method!
Number cuts repeat: 0
value: 70.218597
Number Constraints Used in Cover:412
GRASP Method!
Number cuts repeat: 0
value: 70.218597
Number Constraints Used in Cover:413
GRASP Method!
Number cuts repeat: 0
value: 70.218597
Number Constraints Used in Cover:413
GRASP Method!
Number cuts repeat: 0
value: 70.218597
Number Constraints Used in Cover:413
GRASP Method!
Number cuts repeat: 0
value: 70.218597
Number Constraints Used in Cover:413
GRASP Method!
Number cuts repeat: 0
value: 70.218597
Number Constraints Used in Cover:413
GRASP Method!
Number cuts repeat: 0
value: 70.218597
Number Constraints Used in Cover:413
GRASP Method!
Number cuts repeat: 0
value: 70.218597
Number Constraints Used in Cover:414
GRASP Method!
Number cuts repeat: 0
value: 70.218597
Number Constraints Used in Cover:414
GRASP Method!
Number cuts repeat: 0
value: 70.218597
Number Cuts Final: 404
